* ENCODING=ISO-8859-1
NAME          CPLEX
ROWS
 N  obj1    
 G  c1      
 G  c2      
 G  c3      
 G  c4      
 G  c5      
 G  c6      
 G  c7      
 G  c8      
 G  c9      
 G  c10     
 G  c11     
 G  c12     
 G  c13     
 G  c14     
 G  c15     
 G  c16     
 G  c17     
 G  c18     
 G  c19     
 G  c20     
 G  c21     
 G  c22     
 G  c23     
 G  c24     
 G  c25     
 G  c26     
 G  c27     
 G  c28     
 G  c29     
 G  c30     
 G  c31     
 G  c32     
 G  c33     
 G  c34     
 G  c35     
 G  c36     
 G  c37     
 G  c38     
 G  c39     
 G  c40     
 G  c41     
 G  c42     
 G  c43     
 G  c44     
 G  c45     
 G  c46     
 G  c47     
 G  c48     
 G  c49     
 G  c50     
COLUMNS
    MARK0000  'MARKER'                 'INTORG'
    x1        obj1                            1
    x1        c2                            537
    x1        c9                            418
    x1        c10                           746
    x1        c13                           143
    x1        c17                           185
    x1        c35                           307
    x1        c39                           776
    x1        c44                           414
    x2        obj1                            1
    x2        c5                            491
    x2        c7                            488
    x2        c14                           386
    x2        c17                           529
    x2        c21                           965
    x2        c32                           576
    x2        c39                           538
    x2        c49                           320
    x3        obj1                            1
    x3        c12                           874
    x3        c15                           500
    x3        c19                           356
    x3        c33                           578
    x4        obj1                            1
    x4        c4                            364
    x4        c14                           952
    x4        c18                           518
    x4        c20                           818
    x4        c28                           600
    x4        c29                           734
    x4        c42                           105
    x4        c43                           863
    x4        c50                           809
    x5        obj1                            1
    x5        c5                            422
    x5        c8                            227
    x5        c31                           580
    x6        obj1                            1
    x6        c1                            851
    x6        c4                            728
    x6        c15                           786
    x6        c30                           248
    x7        obj1                            1
    x7        c12                           917
    x7        c16                           680
    x7        c36                           322
    x7        c38                           854
    x7        c49                           432
    x8        obj1                            1
    x8        c22                           105
    x8        c29                           399
    x8        c42                           897
    x9        obj1                            1
    x9        c3                            160
    x9        c4                            882
    x9        c6                            883
    x9        c7                            979
    x9        c10                           858
    x9        c29                           468
    x9        c34                           578
    x9        c43                           738
    x9        c46                           917
    x9        c48                           851
    x10       obj1                            1
    x10       c2                            615
    x10       c7                            927
    x10       c26                           899
    x10       c31                           766
    x10       c35                           906
    x11       obj1                            1
    x11       c10                           446
    x11       c11                           485
    x11       c17                           216
    x11       c19                           154
    x11       c20                           316
    x11       c37                           288
    x11       c39                           594
    x12       obj1                            1
    x12       c17                           687
    x12       c25                           754
    x12       c26                           157
    x12       c27                           786
    x12       c43                           108
    x12       c49                           547
    x13       obj1                            1
    x13       c7                            503
    x13       c12                           779
    x13       c25                           848
    x13       c35                           386
    x13       c42                           256
    x14       obj1                            1
    x15       obj1                            1
    x15       c38                           974
    x16       obj1                            1
    x16       c11                           289
    x16       c16                           616
    x17       obj1                            1
    x17       c10                           487
    x17       c22                           749
    x17       c32                           499
    x17       c50                           217
    x18       obj1                            1
    x18       c15                           790
    x18       c18                           584
    x18       c21                           346
    x18       c42                           965
    x18       c47                           121
    x18       c48                           506
    x19       obj1                            1
    x19       c23                           759
    x19       c39                           373
    x20       obj1                            1
    x20       c2                            424
    x20       c3                            686
    x20       c12                           768
    x20       c18                           639
    x20       c20                           409
    x20       c23                           412
    x20       c26                           868
    x20       c30                           700
    x20       c31                           772
    x20       c32                           703
    x20       c33                           373
    x20       c39                           832
    x20       c50                           632
    x21       obj1                            1
    x21       c6                            942
    x21       c9                            856
    x21       c28                           196
    x21       c33                           731
    x21       c41                           345
    x22       obj1                            1
    x22       c11                           945
    x22       c23                           916
    x22       c26                           455
    x22       c42                           103
    x22       c44                           338
    x22       c47                           925
    x22       c48                           212
    x23       obj1                            1
    x23       c3                            760
    x23       c38                           300
    x23       c46                           594
    x24       obj1                            1
    x24       c6                            627
    x24       c11                           563
    x24       c18                           876
    x24       c36                           777
    x24       c40                           368
    x24       c41                           984
    x24       c46                           839
    x24       c47                           910
    x24       c49                           811
    x25       obj1                            1
    x25       c2                            680
    x25       c7                            542
    x25       c19                           781
    x25       c37                           391
    x25       c40                           529
    x26       obj1                            1
    x26       c2                            529
    x26       c8                            550
    x26       c21                           482
    x26       c22                           383
    x26       c35                           278
    x26       c45                           928
    x27       obj1                            1
    x27       c6                            336
    x27       c25                           850
    x27       c46                           619
    x27       c47                           477
    x28       obj1                            1
    x28       c15                           512
    x28       c20                           614
    x28       c23                           866
    x28       c25                           656
    x28       c41                           216
    x28       c48                           301
    x29       obj1                            1
    x29       c5                            550
    x29       c14                           951
    x29       c31                           934
    x29       c39                           829
    x29       c40                           126
    x30       obj1                            1
    x30       c8                            232
    x30       c16                           659
    x30       c21                           341
    x30       c29                           229
    x30       c44                           678
    x31       obj1                            1
    x31       c12                           162
    x31       c21                           701
    x31       c22                           139
    x31       c28                           201
    x32       obj1                            1
    x32       c12                           822
    x32       c34                           733
    x32       c37                           286
    x32       c48                           620
    x33       obj1                            1
    x33       c14                           404
    x33       c18                           912
    x33       c27                           961
    x33       c32                           944
    x33       c33                           715
    x33       c43                           158
    x33       c47                           130
    x34       obj1                            1
    x34       c8                            583
    x34       c9                            606
    x34       c11                           827
    x34       c38                           696
    x34       c41                           680
    x35       obj1                            1
    x35       c4                            486
    x35       c24                           436
    x35       c29                           834
    x35       c34                           167
    x35       c35                           139
    x35       c50                           691
    x36       obj1                            1
    x36       c7                            815
    x36       c15                           642
    x36       c24                           335
    x36       c28                           687
    x36       c31                           591
    x36       c47                           880
    x36       c49                           203
    x37       obj1                            1
    x37       c6                            614
    x37       c25                           388
    x37       c31                           576
    x37       c41                           195
    x38       obj1                            1
    x38       c9                            574
    x38       c13                           920
    x38       c26                           586
    x38       c34                           949
    x38       c36                           118
    x38       c37                           425
    x38       c41                           410
    x38       c44                           260
    x39       obj1                            1
    x39       c10                           493
    x39       c13                           540
    x39       c25                           600
    x39       c28                           575
    x39       c46                           525
    x39       c49                           155
    x40       obj1                            1
    x40       c15                           885
    x40       c17                           814
    x40       c43                           848
    x40       c44                           999
    x40       c45                           994
    x41       obj1                            1
    x41       c1                            960
    x41       c14                           198
    x41       c22                           186
    x41       c24                           470
    x41       c27                           595
    x41       c40                           361
    x41       c44                           703
    x41       c46                           896
    x41       c50                           231
    x42       obj1                            1
    x42       c6                            498
    x42       c11                           492
    x42       c12                           320
    x42       c32                           684
    x42       c34                           410
    x43       obj1                            1
    x43       c10                           134
    x43       c20                           640
    x43       c45                           921
    x43       c47                           300
    x44       obj1                            1
    x44       c1                            919
    x44       c8                            813
    x44       c34                           159
    x44       c36                           655
    x45       obj1                            1
    x45       c30                           881
    x45       c35                           279
    x45       c48                           937
    x46       obj1                            1
    x46       c10                           894
    x46       c31                           706
    x46       c46                           360
    x47       obj1                            1
    x47       c2                            581
    x47       c7                            964
    x47       c17                           503
    x47       c35                           690
    x47       c41                           259
    x47       c45                           566
    x48       obj1                            1
    x48       c8                            868
    x48       c15                           903
    x48       c17                           488
    x48       c23                           953
    x48       c28                           950
    x48       c38                           799
    x48       c48                           207
    x49       obj1                            1
    x49       c20                           808
    x49       c24                           613
    x49       c32                           539
    x49       c36                           512
    x49       c42                           729
    x50       obj1                            1
    x50       c5                            327
    x50       c20                           961
    x50       c27                           546
    x50       c36                           295
    MARK0001  'MARKER'                 'INTEND'
RHS
    rhs       c1                           1365
    rhs       c2                           1683
    rhs       c3                            803
    rhs       c4                           1230
    rhs       c5                            895
    rhs       c6                           1950
    rhs       c7                           2609
    rhs       c8                           1637
    rhs       c9                           1227
    rhs       c10                          2029
    rhs       c11                          1801
    rhs       c12                          2321
    rhs       c13                           802
    rhs       c14                          1446
    rhs       c15                          2509
    rhs       c16                           978
    rhs       c17                          1711
    rhs       c18                          1765
    rhs       c19                           646
    rhs       c20                          2283
    rhs       c21                          1418
    rhs       c22                           781
    rhs       c23                          1953
    rhs       c24                           927
    rhs       c25                          2048
    rhs       c26                          1483
    rhs       c27                          1444
    rhs       c28                          1605
    rhs       c29                          1332
    rhs       c30                           915
    rhs       c31                          2463
    rhs       c32                          1973
    rhs       c33                          1199
    rhs       c34                          1498
    rhs       c35                          1493
    rhs       c36                          1340
    rhs       c37                           695
    rhs       c38                          1812
    rhs       c39                          1971
    rhs       c40                           692
    rhs       c41                          1545
    rhs       c42                          1528
    rhs       c43                          1358
    rhs       c44                          1696
    rhs       c45                          1705
    rhs       c46                          2375
    rhs       c47                          1872
    rhs       c48                          1817
    rhs       c49                          1234
    rhs       c50                          1290
BOUNDS
 LI bnd       x1        0
 LI bnd       x2        0
 LI bnd       x3        0
 LI bnd       x4        0
 LI bnd       x5        0
 LI bnd       x6        0
 LI bnd       x7        0
 LI bnd       x8        0
 LI bnd       x9        0
 LI bnd       x10       0
 LI bnd       x11       0
 LI bnd       x12       0
 LI bnd       x13       0
 LI bnd       x14       0
 LI bnd       x15       0
 LI bnd       x16       0
 LI bnd       x17       0
 LI bnd       x18       0
 LI bnd       x19       0
 LI bnd       x20       0
 LI bnd       x21       0
 LI bnd       x22       0
 LI bnd       x23       0
 LI bnd       x24       0
 LI bnd       x25       0
 LI bnd       x26       0
 LI bnd       x27       0
 LI bnd       x28       0
 LI bnd       x29       0
 LI bnd       x30       0
 LI bnd       x31       0
 LI bnd       x32       0
 LI bnd       x33       0
 LI bnd       x34       0
 LI bnd       x35       0
 LI bnd       x36       0
 LI bnd       x37       0
 LI bnd       x38       0
 LI bnd       x39       0
 LI bnd       x40       0
 LI bnd       x41       0
 LI bnd       x42       0
 LI bnd       x43       0
 LI bnd       x44       0
 LI bnd       x45       0
 LI bnd       x46       0
 LI bnd       x47       0
 LI bnd       x48       0
 LI bnd       x49       0
 LI bnd       x50       0
ENDATA
